c clasp version 2.1.4
c Reading from ...arks/25_Nodes/PBencd_EuclideanCost.opb
c Solving...
o 849
o 713
o 694
o 672
o 616
o 605
o 601
o 592
o 588
o 586
o 582
o 579
o 578
o 575
o 569
o 561
o 556
o 544
o 538
o 528
o 521
o 515
o 509
o 503
o 497
o 496
o 493
o 487
o 481
o 474
o 463
o 461
o 460
o 450
o 449
o 448
o 445
o 432
o 431
o 426
o 425
o 421
o 420
o 419
o 412
o 410
o 405
o 401
o 400
o 397
o 395
o 393
o 381
o 377
o 376
o 372
o 370
o 363
o 362
o 358
o 356
o 355
o 353
o 350
o 346
o 344
o 342
